c Sudoku solution
p cnf 729 0
188 0
227 0
286 0
324 0
356 0
363 0
385 0
397 0
419 0
484 0
571 0
631 0
645 0
658 0
714 0
534 0
664 0
743 0
757 0
795 0
475 0
811 0
121 0
291 0
341 0
825 0
515 0
866 0
929 0
948 0
268 0
318 0
961 0
955 0
781 0
451 0
553 0
165 0
147 0
235 0
976 0
994 0
339 0
372 0
432 0
617 0
446 0
467 0
587 0
116 0
722 0
913 0
937 0
736 0
838 0
769 0
778 0
982 0
212 0
133 0
152 0
199 0
273 0
174 0
854 0
842 0
549 0
562 0
244 0
259 0
679 0
877 0
683 0
692 0
498 0
596 0
423 0
626 0
528 0
889 0
893 0
